65
1 0 29
2 0 50
2 1 47
3 0 4
3 1 7
3 2 48
4 0 42
4 1 46
4 2 42
4 3 22
5 0 19
5 1 29
5 2 50
5 3 25
5 4 38
6 0 48
6 1 39
6 2 11
6 3 40
6 4 10
6 5 20
7 0 40
7 1 26
7 2 14
7 3 50
7 4 7
7 5 21
7 6 39
8 0 29
8 1 22
8 2 16
8 3 18
8 4 17
8 5 31
8 6 8
8 7 4
9 0 29
9 1 36
9 2 35
9 3 33
9 4 36
9 5 37
9 6 22
9 7 14
9 8 14
10 0 15
10 1 6
10 2 33
10 3 45
10 4 18
10 5 16
10 6 13
10 7 24
10 8 29
10 9 20
11 0 4
11 1 26
11 2 12
11 3 34
11 4 12
11 5 31
11 6 44
11 7 19
11 8 26
11 9 10
11 10 48
12 0 3
12 1 12
12 2 36
12 3 6
12 4 18
12 5 19
12 6 44
12 7 48
12 8 18
12 9 42
12 10 42
12 11 24
13 0 42
13 1 5
13 2 5
13 3 22
13 4 8
13 5 39
13 6 42
13 7 22
13 8 47
13 9 38
13 10 38
13 11 11
13 12 1
14 0 50
14 1 34
14 2 44
14 3 11
14 4 5
14 5 31
14 6 32
14 7 14
14 8 18
14 9 44
14 10 28
14 11 8
14 12 33
14 13 19
15 0 15
15 1 44
15 2 36
15 3 31
15 4 32
15 5 50
15 6 21
15 7 23
15 8 43
15 9 43
15 10 49
15 11 1
15 12 26
15 13 11
15 14 36
16 0 14
16 1 35
16 2 28
16 3 15
16 4 3
16 5 36
16 6 21
16 7 30
16 8 26
16 9 33
16 10 31
16 11 9
16 12 28
16 13 17
16 14 47
16 15 12
17 0 27
17 1 30
17 2 46
17 3 1
17 4 50
17 5 9
17 6 34
17 7 1
17 8 46
17 9 3
17 10 49
17 11 14
17 12 9
17 13 30
17 14 40
17 15 34
17 16 16
18 0 33
18 1 20
18 2 6
18 3 44
18 4 12
18 5 26
18 6 48
18 7 5
18 8 40
18 9 46
18 10 44
18 11 17
18 12 3
18 13 47
18 14 23
18 15 33
18 16 45
18 17 17
19 0 40
19 1 32
19 2 31
19 3 43
19 4 1
19 5 12
19 6 49
19 7 4
19 8 34
19 9 2
19 10 26
19 11 30
19 12 7
19 13 26
19 14 48
19 15 35
19 16 36
19 17 4
19 18 3
20 0 44
20 1 49
20 2 43
20 3 49
20 4 49
20 5 20
20 6 38
20 7 4
20 8 35
20 9 30
20 10 1
20 11 33
20 12 49
20 13 27
20 14 21
20 15 5
20 16 13
20 17 28
20 18 40
20 19 23
21 0 33
21 1 9
21 2 35
21 3 26
21 4 39
21 5 38
21 6 50
21 7 33
21 8 22
21 9 45
21 10 9
21 11 7
21 12 30
21 13 39
21 14 18
21 15 38
21 16 22
21 17 46
21 18 11
21 19 45
21 20 1
22 0 16
22 1 40
22 2 20
22 3 25
22 4 24
22 5 14
22 6 36
22 7 16
22 8 14
22 9 32
22 10 28
22 11 49
22 12 9
22 13 30
22 14 33
22 15 35
22 16 41
22 17 11
22 18 23
22 19 21
22 20 24
22 21 16
23 0 6
23 1 22
23 2 6
23 3 14
23 4 33
23 5 34
23 6 9
23 7 47
23 8 28
23 9 39
23 10 3
23 11 45
23 12 46
23 13 13
23 14 7
23 15 11
23 16 1
23 17 3
23 18 34
23 19 14
23 20 6
23 21 3
23 22 48
24 0 22
24 1 14
24 2 39
24 3 28
24 4 40
24 5 6
24 6 4
24 7 37
24 8 3
24 9 36
24 10 35
24 11 43
24 12 11
24 13 30
24 14 39
24 15 49
24 16 41
24 17 50
24 18 46
24 19 23
24 20 48
24 21 37
24 22 16
24 23 31
25 0 8
25 1 15
25 2 4
25 3 29
25 4 31
25 5 1
25 6 25
25 7 45
25 8 3
25 9 17
25 10 21
25 11 30
25 12 28
25 13 43
25 14 26
25 15 35
25 16 19
25 17 10
25 18 7
25 19 20
25 20 32
25 21 16
25 22 19
25 23 26
25 24 17
26 0 28
26 1 14
26 2 40
26 3 9
26 4 29
26 5 13
26 6 1
26 7 39
26 8 3
26 9 14
26 10 26
26 11 46
26 12 33
26 13 23
26 14 5
26 15 17
26 16 46
26 17 47
26 18 21
26 19 16
26 20 36
26 21 16
26 22 33
26 23 23
26 24 34
26 25 44
27 0 50
27 1 39
27 2 36
27 3 31
27 4 42
27 5 27
27 6 18
27 7 29
27 8 14
27 9 12
27 10 36
27 11 6
27 12 45
27 13 29
27 14 21
27 15 48
27 16 6
27 17 32
27 18 18
27 19 26
27 20 33
27 21 6
27 22 23
27 23 21
27 24 32
27 25 44
27 26 1
28 0 22
28 1 28
28 2 38
28 3 32
28 4 16
28 5 10
28 6 28
28 7 19
28 8 49
28 9 11
28 10 40
28 11 31
28 12 15
28 13 29
28 14 11
28 15 20
28 16 15
28 17 33
28 18 32
28 19 27
28 20 32
28 21 25
28 22 17
28 23 37
28 24 29
28 25 6
28 26 6
28 27 19
29 0 32
29 1 26
29 2 42
29 3 39
29 4 9
29 5 17
29 6 38
29 7 12
29 8 4
29 9 17
29 10 23
29 11 43
29 12 15
29 13 27
29 14 44
29 15 9
29 16 26
29 17 8
29 18 27
29 19 10
29 20 24
29 21 47
29 22 30
29 23 49
29 24 48
29 25 35
29 26 32
29 27 9
29 28 40
30 0 43
30 1 41
30 2 14
30 3 2
30 4 19
30 5 30
30 6 3
30 7 4
30 8 21
30 9 48
30 10 39
30 11 40
30 12 41
30 13 22
30 14 7
30 15 28
30 16 39
30 17 35
30 18 43
30 19 47
30 20 36
30 21 41
30 22 27
30 23 24
30 24 50
30 25 27
30 26 7
30 27 28
30 28 6
30 29 6
31 0 9
31 1 25
31 2 26
31 3 19
31 4 25
31 5 25
31 6 44
31 7 11
31 8 21
31 9 40
31 10 3
31 11 39
31 12 6
31 13 6
31 14 28
31 15 44
31 16 5
31 17 42
31 18 18
31 19 19
31 20 42
31 21 34
31 22 29
31 23 38
31 24 49
31 25 13
31 26 11
31 27 47
31 28 32
31 29 4
31 30 44
32 0 9
32 1 36
32 2 3
32 3 19
32 4 27
32 5 24
32 6 20
32 7 30
32 8 17
32 9 15
32 10 49
32 11 39
32 12 22
32 13 2
32 14 32
32 15 22
32 16 22
32 17 38
32 18 15
32 19 26
32 20 2
32 21 6
32 22 13
32 23 5
32 24 6
32 25 34
32 26 37
32 27 18
32 28 24
32 29 39
32 30 50
32 31 9
33 0 47
33 1 41
33 2 41
33 3 40
33 4 27
33 5 4
33 6 19
33 7 14
33 8 2
33 9 22
33 10 14
33 11 37
33 12 43
33 13 32
33 14 35
33 15 35
33 16 48
33 17 44
33 18 47
33 19 41
33 20 36
33 21 43
33 22 25
33 23 5
33 24 30
33 25 41
33 26 35
33 27 4
33 28 4
33 29 44
33 30 26
33 31 42
33 32 11
34 0 40
34 1 49
34 2 29
34 3 49
34 4 6
34 5 18
34 6 19
34 7 42
34 8 15
34 9 8
34 10 11
34 11 31
34 12 41
34 13 18
34 14 14
34 15 23
34 16 11
34 17 31
34 18 23
34 19 18
34 20 43
34 21 18
34 22 10
34 23 36
34 24 48
34 25 39
34 26 18
34 27 32
34 28 35
34 29 28
34 30 29
34 31 21
34 32 35
34 33 25
35 0 23
35 1 41
35 2 37
35 3 19
35 4 19
35 5 26
35 6 19
35 7 42
35 8 47
35 9 38
35 10 31
35 11 17
35 12 16
35 13 46
35 14 1
35 15 48
35 16 37
35 17 31
35 18 45
35 19 46
35 20 17
35 21 36
35 22 24
35 23 13
35 24 40
35 25 7
35 26 45
35 27 29
35 28 26
35 29 17
35 30 39
35 31 4
35 32 19
35 33 8
35 34 38
36 0 25
36 1 9
36 2 1
36 3 40
36 4 11
36 5 26
36 6 42
36 7 31
36 8 41
36 9 23
36 10 12
36 11 18
36 12 7
36 13 20
36 14 42
36 15 11
36 16 13
36 17 2
36 18 27
36 19 49
36 20 6
36 21 5
36 22 20
36 23 20
36 24 24
36 25 25
36 26 12
36 27 43
36 28 48
36 29 1
36 30 15
36 31 6
36 32 41
36 33 30
36 34 23
36 35 26
37 0 37
37 1 42
37 2 34
37 3 21
37 4 22
37 5 17
37 6 9
37 7 31
37 8 47
37 9 7
37 10 45
37 11 42
37 12 19
37 13 48
37 14 33
37 15 34
37 16 38
37 17 23
37 18 1
37 19 38
37 20 32
37 21 26
37 22 30
37 23 36
37 24 45
37 25 7
37 26 24
37 27 14
37 28 9
37 29 35
37 30 45
37 31 42
37 32 16
37 33 25
37 34 22
37 35 47
37 36 9
38 0 50
38 1 12
38 2 43
38 3 29
38 4 44
38 5 10
38 6 50
38 7 2
38 8 10
38 9 49
38 10 42
38 11 4
38 12 49
38 13 17
38 14 33
38 15 30
38 16 11
38 17 5
38 18 26
38 19 2
38 20 50
38 21 45
38 22 33
38 23 14
38 24 11
38 25 18
38 26 40
38 27 14
38 28 11
38 29 16
38 30 46
38 31 14
38 32 10
38 33 26
38 34 11
38 35 31
38 36 16
38 37 23
39 0 32
39 1 39
39 2 36
39 3 42
39 4 6
39 5 14
39 6 3
39 7 14
39 8 13
39 9 11
39 10 7
39 11 27
39 12 10
39 13 42
39 14 38
39 15 30
39 16 50
39 17 22
39 18 49
39 19 33
39 20 30
39 21 9
39 22 10
39 23 34
39 24 15
39 25 3
39 26 47
39 27 35
39 28 14
39 29 44
39 30 11
39 31 38
39 32 34
39 33 36
39 34 42
39 35 39
39 36 3
39 37 40
39 38 41
40 0 14
40 1 29
40 2 18
40 3 14
40 4 36
40 5 46
40 6 49
40 7 46
40 8 18
40 9 40
40 10 29
40 11 16
40 12 18
40 13 48
40 14 40
40 15 28
40 16 40
40 17 29
40 18 49
40 19 37
40 20 45
40 21 30
40 22 19
40 23 44
40 24 15
40 25 25
40 26 27
40 27 23
40 28 29
40 29 23
40 30 11
40 31 25
40 32 10
40 33 50
40 34 48
40 35 18
40 36 16
40 37 21
40 38 13
40 39 33
41 0 29
41 1 34
41 2 4
41 3 20
41 4 32
41 5 28
41 6 2
41 7 36
41 8 42
41 9 15
41 10 20
41 11 10
41 12 31
41 13 50
41 14 9
41 15 24
41 16 20
41 17 17
41 18 16
41 19 34
41 20 4
41 21 36
41 22 9
41 23 42
41 24 11
41 25 27
41 26 41
41 27 19
41 28 42
41 29 24
41 30 25
41 31 16
41 32 13
41 33 43
41 34 38
41 35 39
41 36 12
41 37 21
41 38 37
41 39 45
41 40 36
42 0 19
42 1 28
42 2 13
42 3 30
42 4 49
42 5 16
42 6 29
42 7 22
42 8 36
42 9 27
42 10 2
42 11 6
42 12 17
42 13 14
42 14 26
42 15 38
42 16 18
42 17 30
42 18 44
42 19 26
42 20 11
42 21 22
42 22 38
42 23 40
42 24 23
42 25 35
42 26 33
42 27 16
42 28 18
42 29 35
42 30 18
42 31 5
42 32 27
42 33 24
42 34 34
42 35 40
42 36 12
42 37 37
42 38 23
42 39 32
42 40 40
42 41 43
43 0 1
43 1 21
43 2 14
43 3 49
43 4 29
43 5 20
43 6 8
43 7 33
43 8 22
43 9 11
43 10 32
43 11 35
43 12 37
43 13 50
43 14 2
43 15 7
43 16 17
43 17 21
43 18 18
43 19 26
43 20 47
43 21 7
43 22 39
43 23 44
43 24 23
43 25 10
43 26 45
43 27 9
43 28 26
43 29 3
43 30 40
43 31 9
43 32 21
43 33 28
43 34 19
43 35 24
43 36 39
43 37 35
43 38 27
43 39 50
43 40 3
43 41 15
43 42 48
44 0 29
44 1 22
44 2 47
44 3 45
44 4 26
44 5 36
44 6 16
44 7 46
44 8 26
44 9 23
44 10 30
44 11 34
44 12 50
44 13 10
44 14 40
44 15 4
44 16 3
44 17 37
44 18 26
44 19 24
44 20 18
44 21 37
44 22 38
44 23 37
44 24 35
44 25 1
44 26 11
44 27 21
44 28 8
44 29 27
44 30 31
44 31 50
44 32 6
44 33 35
44 34 41
44 35 25
44 36 12
44 37 27
44 38 49
44 39 30
44 40 33
44 41 2
44 42 28
44 43 43
45 0 32
45 1 27
45 2 24
45 3 11
45 4 20
45 5 1
45 6 20
45 7 20
45 8 16
45 9 31
45 10 46
45 11 9
45 12 5
45 13 39
45 14 19
45 15 23
45 16 7
45 17 48
45 18 16
45 19 33
45 20 41
45 21 31
45 22 1
45 23 48
45 24 31
45 25 46
45 26 20
45 27 17
45 28 21
45 29 29
45 30 24
45 31 20
45 32 48
45 33 27
45 34 46
45 35 24
45 36 38
45 37 32
45 38 34
45 39 24
45 40 40
45 41 12
45 42 21
45 43 29
45 44 34
46 0 24
46 1 17
46 2 25
46 3 13
46 4 49
46 5 42
46 6 12
46 7 36
46 8 38
46 9 41
46 10 15
46 11 42
46 12 35
46 13 31
46 14 40
46 15 37
46 16 6
46 17 48
46 18 10
46 19 23
46 20 6
46 21 27
46 22 9
46 23 4
46 24 32
46 25 38
46 26 16
46 27 16
46 28 36
46 29 5
46 30 15
46 31 39
46 32 46
46 33 47
46 34 44
46 35 5
46 36 18
46 37 38
46 38 45
46 39 10
46 40 37
46 41 22
46 42 1
46 43 38
46 44 45
46 45 24
47 0 47
47 1 44
47 2 17
47 3 39
47 4 21
47 5 39
47 6 21
47 7 14
47 8 10
47 9 33
47 10 12
47 11 19
47 12 30
47 13 7
47 14 26
47 15 7
47 16 34
47 17 3
47 18 33
47 19 29
47 20 47
47 21 22
47 22 12
47 23 36
47 24 6
47 25 46
47 26 24
47 27 45
47 28 19
47 29 46
47 30 1
47 31 35
47 32 13
47 33 18
47 34 40
47 35 38
47 36 45
47 37 39
47 38 12
47 39 36
47 40 18
47 41 1
47 42 12
47 43 27
47 44 26
47 45 3
47 46 43
48 0 46
48 1 14
48 2 19
48 3 23
48 4 9
48 5 17
48 6 4
48 7 35
48 8 17
48 9 46
48 10 36
48 11 35
48 12 44
48 13 44
48 14 21
48 15 30
48 16 31
48 17 16
48 18 44
48 19 26
48 20 29
48 21 25
48 22 11
48 23 23
48 24 37
48 25 44
48 26 39
48 27 19
48 28 21
48 29 12
48 30 20
48 31 8
48 32 1
48 33 23
48 34 38
48 35 33
48 36 1
48 37 27
48 38 43
48 39 50
48 40 5
48 41 25
48 42 27
48 43 19
48 44 38
48 45 32
48 46 38
48 47 24
49 0 12
49 1 2
49 2 10
49 3 14
49 4 41
49 5 31
49 6 46
49 7 21
49 8 33
49 9 35
49 10 33
49 11 44
49 12 11
49 13 8
49 14 43
49 15 15
49 16 3
49 17 31
49 18 8
49 19 30
49 20 33
49 21 8
49 22 21
49 23 6
49 24 13
49 25 25
49 26 14
49 27 49
49 28 20
49 29 38
49 30 43
49 31 15
49 32 1
49 33 11
49 34 1
49 35 3
49 36 41
49 37 22
49 38 21
49 39 15
49 40 47
49 41 49
49 42 14
49 43 33
49 44 9
49 45 24
49 46 25
49 47 13
49 48 31
50 0 39
50 1 26
50 2 49
50 3 44
50 4 19
50 5 12
50 6 5
50 7 40
50 8 20
50 9 40
50 10 2
50 11 2
50 12 42
50 13 43
50 14 43
50 15 44
50 16 45
50 17 48
50 18 21
50 19 26
50 20 26
50 21 3
50 22 30
50 23 12
50 24 23
50 25 7
50 26 45
50 27 19
50 28 25
50 29 27
50 30 16
50 31 7
50 32 41
50 33 30
50 34 17
50 35 30
50 36 21
50 37 26
50 38 23
50 39 14
50 40 1
50 41 37
50 42 23
50 43 16
50 44 13
50 45 3
50 46 28
50 47 2
50 48 35
50 49 20
51 0 48
51 1 24
51 2 3
51 3 41
51 4 24
51 5 14
51 6 42
51 7 25
51 8 19
51 9 33
51 10 4
51 11 20
51 12 28
51 13 42
51 14 1
51 15 44
51 16 21
51 17 34
51 18 41
51 19 49
51 20 31
51 21 38
51 22 42
51 23 21
51 24 50
51 25 5
51 26 34
51 27 45
51 28 40
51 29 46
51 30 17
51 31 20
51 32 34
51 33 33
51 34 18
51 35 13
51 36 9
51 37 33
51 38 14
51 39 15
51 40 45
51 41 32
51 42 1
51 43 22
51 44 13
51 45 31
51 46 17
51 47 26
51 48 31
51 49 47
51 50 50
52 0 47
52 1 13
52 2 34
52 3 24
52 4 42
52 5 31
52 6 19
52 7 19
52 8 38
52 9 17
52 10 7
52 11 48
52 12 34
52 13 21
52 14 22
52 15 12
52 16 17
52 17 22
52 18 46
52 19 33
52 20 50
52 21 34
52 22 22
52 23 23
52 24 2
52 25 14
52 26 49
52 27 48
52 28 9
52 29 13
52 30 2
52 31 27
52 32 2
52 33 39
52 34 42
52 35 1
52 36 24
52 37 44
52 38 10
52 39 38
52 40 45
52 41 37
52 42 16
52 43 29
52 44 19
52 45 10
52 46 24
52 47 20
52 48 21
52 49 48
52 50 16
52 51 6
53 0 30
53 1 38
53 2 37
53 3 16
53 4 19
53 5 27
53 6 45
53 7 29
53 8 2
53 9 11
53 10 18
53 11 31
53 12 17
53 13 36
53 14 11
53 15 24
53 16 14
53 17 20
53 18 29
53 19 30
53 20 20
53 21 40
53 22 50
53 23 23
53 24 5
53 25 36
53 26 29
53 27 43
53 28 8
53 29 33
53 30 42
53 31 21
53 32 22
53 33 20
53 34 31
53 35 34
53 36 18
53 37 15
53 38 38
53 39 46
53 40 28
53 41 5
53 42 44
53 43 23
53 44 1
53 45 4
53 46 48
53 47 9
53 48 26
53 49 11
53 50 20
53 51 31
53 52 2
54 0 47
54 1 32
54 2 28
54 3 37
54 4 34
54 5 34
54 6 20
54 7 17
54 8 11
54 9 48
54 10 16
54 11 11
54 12 27
54 13 25
54 14 9
54 15 31
54 16 33
54 17 13
54 18 50
54 19 28
54 20 41
54 21 9
54 22 35
54 23 24
54 24 39
54 25 11
54 26 10
54 27 34
54 28 11
54 29 15
54 30 38
54 31 10
54 32 26
54 33 20
54 34 45
54 35 21
54 36 14
54 37 36
54 38 44
54 39 43
54 40 23
54 41 37
54 42 50
54 43 37
54 44 8
54 45 49
54 46 24
54 47 14
54 48 49
54 49 15
54 50 33
54 51 49
54 52 46
54 53 14
55 0 41
55 1 6
55 2 5
55 3 4
55 4 36
55 5 24
55 6 29
55 7 31
55 8 34
55 9 38
55 10 22
55 11 7
55 12 49
55 13 20
55 14 26
55 15 24
55 16 36
55 17 31
55 18 35
55 19 27
55 20 26
55 21 50
55 22 32
55 23 40
55 24 28
55 25 49
55 26 9
55 27 44
55 28 46
55 29 41
55 30 49
55 31 26
55 32 26
55 33 13
55 34 1
55 35 25
55 36 23
55 37 30
55 38 4
55 39 12
55 40 5
55 41 4
55 42 18
55 43 13
55 44 8
55 45 49
55 46 34
55 47 31
55 48 14
55 49 20
55 50 10
55 51 5
55 52 8
55 53 47
55 54 15
56 0 39
56 1 12
56 2 35
56 3 15
56 4 3
56 5 21
56 6 7
56 7 5
56 8 27
56 9 6
56 10 7
56 11 34
56 12 8
56 13 4
56 14 37
56 15 29
56 16 30
56 17 13
56 18 39
56 19 9
56 20 34
56 21 9
56 22 18
56 23 35
56 24 24
56 25 11
56 26 40
56 27 27
56 28 16
56 29 40
56 30 24
56 31 33
56 32 32
56 33 26
56 34 36
56 35 37
56 36 41
56 37 37
56 38 42
56 39 8
56 40 7
56 41 4
56 42 35
56 43 38
56 44 21
56 45 30
56 46 24
56 47 21
56 48 22
56 49 15
56 50 37
56 51 23
56 52 33
56 53 20
56 54 32
56 55 30
57 0 2
57 1 2
57 2 5
57 3 4
57 4 10
57 5 21
57 6 15
57 7 48
57 8 48
57 9 1
57 10 25
57 11 40
57 12 49
57 13 46
57 14 32
57 15 19
57 16 8
57 17 10
57 18 27
57 19 43
57 20 9
57 21 41
57 22 7
57 23 40
57 24 45
57 25 32
57 26 49
57 27 41
57 28 39
57 29 15
57 30 32
57 31 43
57 32 39
57 33 16
57 34 12
57 35 16
57 36 40
57 37 23
57 38 42
57 39 23
57 40 4
57 41 17
57 42 30
57 43 1
57 44 4
57 45 38
57 46 47
57 47 32
57 48 25
57 49 10
57 50 44
57 51 49
57 52 42
57 53 33
57 54 38
57 55 10
57 56 12
58 0 22
58 1 29
58 2 17
58 3 41
58 4 46
58 5 43
58 6 43
58 7 33
58 8 12
58 9 31
58 10 17
58 11 4
58 12 11
58 13 9
58 14 50
58 15 49
58 16 27
58 17 29
58 18 29
58 19 16
58 20 17
58 21 39
58 22 45
58 23 44
58 24 5
58 25 18
58 26 42
58 27 8
58 28 31
58 29 45
58 30 41
58 31 46
58 32 48
58 33 28
58 34 46
58 35 32
58 36 9
58 37 16
58 38 13
58 39 46
58 40 47
58 41 8
58 42 6
58 43 40
58 44 14
58 45 48
58 46 10
58 47 12
58 48 23
58 49 45
58 50 38
58 51 24
58 52 15
58 53 36
58 54 32
58 55 41
58 56 26
58 57 2
59 0 18
59 1 8
59 2 10
59 3 36
59 4 45
59 5 18
59 6 1
59 7 39
59 8 39
59 9 6
59 10 17
59 11 29
59 12 20
59 13 6
59 14 47
59 15 1
59 16 4
59 17 25
59 18 42
59 19 11
59 20 2
59 21 45
59 22 9
59 23 41
59 24 15
59 25 38
59 26 17
59 27 37
59 28 9
59 29 29
59 30 11
59 31 13
59 32 1
59 33 4
59 34 12
59 35 35
59 36 12
59 37 46
59 38 16
59 39 45
59 40 41
59 41 2
59 42 20
59 43 26
59 44 38
59 45 47
59 46 27
59 47 33
59 48 20
59 49 17
59 50 14
59 51 20
59 52 11
59 53 19
59 54 21
59 55 17
59 56 41
59 57 40
59 58 31
60 0 7
60 1 11
60 2 50
60 3 21
60 4 27
60 5 14
60 6 13
60 7 20
60 8 32
60 9 25
60 10 41
60 11 47
60 12 12
60 13 47
60 14 3
60 15 23
60 16 18
60 17 15
60 18 4
60 19 13
60 20 34
60 21 20
60 22 3
60 23 19
60 24 8
60 25 25
60 26 19
60 27 48
60 28 4
60 29 11
60 30 21
60 31 4
60 32 23
60 33 5
60 34 22
60 35 11
60 36 26
60 37 50
60 38 2
60 39 26
60 40 30
60 41 34
60 42 49
60 43 34
60 44 34
60 45 32
60 46 24
60 47 10
60 48 22
60 49 45
60 50 13
60 51 9
60 52 36
60 53 4
60 54 40
60 55 45
60 56 19
60 57 8
60 58 39
60 59 50
61 0 9
61 1 4
61 2 34
61 3 48
61 4 20
61 5 17
61 6 33
61 7 3
61 8 42
61 9 41
61 10 31
61 11 2
61 12 35
61 13 24
61 14 49
61 15 25
61 16 29
61 17 13
61 18 15
61 19 13
61 20 13
61 21 39
61 22 3
61 23 19
61 24 20
61 25 17
61 26 4
61 27 41
61 28 48
61 29 24
61 30 31
61 31 30
61 32 11
61 33 6
61 34 37
61 35 8
61 36 35
61 37 47
61 38 38
61 39 2
61 40 2
61 41 29
61 42 3
61 43 21
61 44 7
61 45 36
61 46 48
61 47 47
61 48 37
61 49 21
61 50 2
61 51 31
61 52 15
61 53 42
61 54 41
61 55 18
61 56 8
61 57 27
61 58 37
61 59 44
61 60 40
62 0 47
62 1 43
62 2 4
62 3 6
62 4 26
62 5 35
62 6 29
62 7 2
62 8 43
62 9 4
62 10 20
62 11 25
62 12 36
62 13 7
62 14 26
62 15 1
62 16 40
62 17 27
62 18 23
62 19 9
62 20 24
62 21 33
62 22 1
62 23 47
62 24 8
62 25 30
62 26 23
62 27 14
62 28 41
62 29 35
62 30 47
62 31 35
62 32 44
62 33 22
62 34 22
62 35 4
62 36 19
62 37 30
62 38 32
62 39 50
62 40 17
62 41 5
62 42 45
62 43 16
62 44 36
62 45 12
62 46 1
62 47 13
62 48 50
62 49 32
62 50 45
62 51 10
62 52 45
62 53 23
62 54 20
62 55 20
62 56 17
62 57 50
62 58 10
62 59 33
62 60 29
62 61 2
63 0 18
63 1 13
63 2 35
63 3 5
63 4 38
63 5 20
63 6 7
63 7 13
63 8 31
63 9 45
63 10 23
63 11 17
63 12 11
63 13 11
63 14 22
63 15 16
63 16 41
63 17 29
63 18 49
63 19 26
63 20 46
63 21 9
63 22 34
63 23 3
63 24 11
63 25 30
63 26 45
63 27 9
63 28 38
63 29 41
63 30 40
63 31 40
63 32 22
63 33 36
63 34 18
63 35 13
63 36 27
63 37 24
63 38 47
63 39 13
63 40 5
63 41 37
63 42 17
63 43 12
63 44 17
63 45 24
63 46 30
63 47 35
63 48 23
63 49 16
63 50 6
63 51 28
63 52 15
63 53 23
63 54 36
63 55 9
63 56 48
63 57 4
63 58 40
63 59 33
63 60 15
63 61 39
63 62 24
64 0 44
64 1 40
64 2 50
64 3 40
64 4 1
64 5 11
64 6 34
64 7 3
64 8 38
64 9 14
64 10 5
64 11 38
64 12 7
64 13 1
64 14 39
64 15 6
64 16 7
64 17 26
64 18 20
64 19 50
64 20 14
64 21 23
64 22 20
64 23 14
64 24 31
64 25 26
64 26 47
64 27 32
64 28 13
64 29 25
64 30 46
64 31 4
64 32 50
64 33 40
64 34 24
64 35 16
64 36 1
64 37 27
64 38 12
64 39 15
64 40 21
64 41 28
64 42 3
64 43 18
64 44 5
64 45 8
64 46 12
64 47 30
64 48 28
64 49 50
64 50 7
64 51 36
64 52 8
64 53 38
64 54 5
64 55 15
64 56 10
64 57 26
64 58 35
64 59 13
64 60 3
64 61 42
64 62 47
64 63 45
